============================[ Problem Statistics ]=============================
|                                                                             |
|  Number of variables:         14560                                         |
|  Number of clauses:           48075                                         |
|  Parse time:                   0.06 s                                       |
|  Eliminated clauses:           0.11 Mb                                      |
|  Simplification time:          0.04 s                                       |
|                                                                             |
===============================================================================
restarts              : 4194299
conflicts             : 4221311627     (6528 /sec)
decisions             : 5465925280     (0.00 % random) (8453 /sec)
propagations          : 2147571988581   (3321144 /sec)
conflict literals     : 146006255985   (46.33 % deleted)
Memory used           : 1187.00 MB
CPU time              : 646636 s

SATISFIABLE